
Starting CP-SAT solver v9.15.6755
Parameters: random_seed: 2026073232 max_time_in_seconds: 2481.0103883548572 log_search_progress: true cp_model_presolve: true linearization_level: 2 num_search_workers: 4 cp_model_probing_level: 2 symmetry_level: 2

Initial satisfaction model '': (model_fingerprint: 0xfc7f3d40a58141ab)
#Variables: 724 (608 primary variables)
  - 724 Booleans in [0,1]
#kBoolAnd: 110 (#enforced: 110) (#literals: 330)
#kBoolOr: 110 (#enforced: 110) (#literals: 220)
#kExactlyOne: 87 (#literals: 261)
#kLinear1: 32 (#enforced: 6)
#kLinear2: 336 (#enforced: 336) (#complex_domain: 110)
#kLinear3: 1'600 (#enforced: 6)
#kLinearN: 1'132 (#enforced: 243) (#terms: 9'111)

Starting presolve at 0.00s
  6.70e-04s  0.00e+00d  [DetectDominanceRelations] 
  8.96e-03s  0.00e+00d  [PresolveToFixPoint] #num_loops=3 #num_dual_strengthening=1 
  3.73e-05s  0.00e+00d  [ExtractEncodingFromLinear] #potential_supersets=78 
  2.89e-04s  0.00e+00d  [DetectDuplicateColumns] 
  9.96e-05s  0.00e+00d  [DetectDuplicateConstraints] #duplicates=5 
[Symmetry] Graph for symmetry has 4'870 nodes and 15'740 arcs.
[Symmetry] Symmetry computation done. time: 0.00147388 dtime: 0.00218984
[SAT presolve] num removable Booleans: 220 / 626
[SAT presolve] num trivial clauses: 0
[SAT presolve] [0s] clauses:2'740 literals:7'444 vars:506 one_side_vars:66 simple_definition:1 singleton_clauses:0
[SAT presolve] [0.000226032s] clauses:2'739 literals:7'437 vars:506 one_side_vars:66 simple_definition:1 singleton_clauses:0
[SAT presolve] [0.000588408s] clauses:2'418 literals:6'932 vars:389 one_side_vars:68 simple_definition:24 singleton_clauses:0
  1.27e-04s  0.00e+00d  [DetectDuplicateConstraintsWithDifferentEnforcements] #without_enforcements=1 
  5.82e-03s  2.67e-03d  [Probe] #probed=1'304 #fixed_bools=12 #equiv=9 #new_binary_clauses=988 
  5.51e-04s  3.61e-04d  [MaxClique] Merged 657 constraints with 1'416 literals into 593 constraints with 1'306 literals
  8.78e-04s  0.00e+00d  [DetectDominanceRelations] 
  3.21e-03s  0.00e+00d  [PresolveToFixPoint] #num_loops=1 #num_dual_strengthening=1 
  1.20e-03s  0.00e+00d  [ProcessAtMostOneAndLinear] 
  1.04e-04s  0.00e+00d  [DetectDuplicateConstraints] #duplicates=6 
  9.42e-05s  0.00e+00d  [DetectDuplicateConstraintsWithDifferentEnforcements] 
  1.81e-03s  7.94e-05d  [DetectDominatedLinearConstraints] #relevant_constraints=838 #num_inclusions=405 #num_redundant=7 
  1.19e-04s  0.00e+00d  [DetectDifferentVariables] 
  8.06e-04s  9.13e-05d  [ProcessSetPPC] #relevant_constraints=3'183 #num_inclusions=241 
  3.36e-04s  3.42e-05d  [TransformClausesToExactlyOne] #num_amos=586 #num_clauses=1'767 #num_checked=1'767 
  4.29e-05s  0.00e+00d  [DetectEncodedComplexDomains] 
  3.59e-05s  0.00e+00d  [FindAlmostIdenticalLinearConstraints] 
  9.50e-04s  1.43e-03d  [FindBigAtMostOneAndLinearOverlap] 
  1.46e-03s  1.13e-03d  [FindBigVerticalLinearOverlap] #blocks=4 #saved_nz=142 
  3.64e-04s  6.25e-04d  [FindBigHorizontalLinearOverlap] #linears=468 
  3.28e-04s  2.79e-05d  [MergeClauses] #num_collisions=10 #num_merges=10 #num_saved_literals=38 
  8.72e-04s  0.00e+00d  [DetectDominanceRelations] 
  3.23e-03s  0.00e+00d  [PresolveToFixPoint] #num_loops=2 #num_dual_strengthening=1 
  8.67e-04s  0.00e+00d  [DetectDominanceRelations] 
  3.09e-03s  0.00e+00d  [PresolveToFixPoint] #num_loops=1 #num_dual_strengthening=1 
  1.82e-04s  0.00e+00d  [DetectDuplicateColumns] 
  9.67e-05s  0.00e+00d  [DetectDuplicateConstraints] 
[Symmetry] Graph for symmetry has 4'522 nodes and 14'153 arcs.
[Symmetry] Symmetry computation done. time: 0.00112133 dtime: 0.00144962
[SAT presolve] num removable Booleans: 102 / 494
[SAT presolve] num trivial clauses: 0
[SAT presolve] [0s] clauses:2'345 literals:6'761 vars:466 one_side_vars:142 simple_definition:34 singleton_clauses:0
[SAT presolve] [0.000250798s] clauses:2'343 literals:6'594 vars:466 one_side_vars:154 simple_definition:84 singleton_clauses:0
[SAT presolve] [0.000371283s] clauses:2'215 literals:6'292 vars:463 one_side_vars:179 simple_definition:70 singleton_clauses:0
  1.55e-04s  0.00e+00d  [DetectDuplicateConstraintsWithDifferentEnforcements] 
  5.90e-03s  1.93e-03d  [Probe] #probed=1'304 #new_binary_clauses=612 
  4.41e-04s  2.84e-04d  [MaxClique] Merged 521 constraints with 1'107 literals into 513 constraints with 1'101 literals
  8.61e-04s  0.00e+00d  [DetectDominanceRelations] 
  3.15e-03s  0.00e+00d  [PresolveToFixPoint] #num_loops=1 #num_dual_strengthening=1 
  1.13e-03s  0.00e+00d  [ProcessAtMostOneAndLinear] 
  1.16e-04s  0.00e+00d  [DetectDuplicateConstraints] 
  9.89e-05s  0.00e+00d  [DetectDuplicateConstraintsWithDifferentEnforcements] 
  1.38e-03s  6.70e-05d  [DetectDominatedLinearConstraints] #relevant_constraints=829 #num_inclusions=350 
  1.41e-04s  0.00e+00d  [DetectDifferentVariables] 
  7.75e-04s  7.62e-05d  [ProcessSetPPC] #relevant_constraints=3'110 #num_inclusions=112 
  2.89e-04s  3.30e-05d  [TransformClausesToExactlyOne] #num_amos=512 #num_clauses=1'722 #num_checked=1'722 
  1.57e-04s  0.00e+00d  [DetectEncodedComplexDomains] 
  4.24e-05s  0.00e+00d  [FindAlmostIdenticalLinearConstraints] 
  8.59e-04s  1.22e-03d  [FindBigAtMostOneAndLinearOverlap] 
  1.32e-03s  1.05e-03d  [FindBigVerticalLinearOverlap] #blocks=1 #saved_nz=40 
  3.56e-04s  5.89e-04d  [FindBigHorizontalLinearOverlap] #linears=466 
  4.00e-04s  2.65e-05d  [MergeClauses] #num_collisions=74 #num_merges=74 #num_saved_literals=189 
  9.00e-04s  0.00e+00d  [DetectDominanceRelations] 
  3.26e-03s  0.00e+00d  [PresolveToFixPoint] #num_loops=2 #num_dual_strengthening=1 
  8.65e-04s  0.00e+00d  [DetectDominanceRelations] 
  3.11e-03s  0.00e+00d  [PresolveToFixPoint] #num_loops=1 #num_dual_strengthening=1 
  1.59e-04s  0.00e+00d  [DetectDuplicateColumns] 
  1.39e-04s  0.00e+00d  [DetectDuplicateConstraints] 
[Symmetry] Graph for symmetry has 4'330 nodes and 13'402 arcs.
[Symmetry] Symmetry computation done. time: 0.00100695 dtime: 0.00137276
[SAT presolve] num removable Booleans: 99 / 491
[SAT presolve] num trivial clauses: 0
[SAT presolve] [0s] clauses:2'204 literals:6'268 vars:463 one_side_vars:179 simple_definition:70 singleton_clauses:0
[SAT presolve] [0.00020382s] clauses:2'204 literals:6'268 vars:463 one_side_vars:179 simple_definition:70 singleton_clauses:0
[SAT presolve] [0.000266958s] clauses:2'204 literals:6'268 vars:463 one_side_vars:179 simple_definition:70 singleton_clauses:0
  1.99e-04s  0.00e+00d  [DetectDuplicateConstraintsWithDifferentEnforcements] 
  5.93e-03s  1.91e-03d  [Probe] #probed=1'304 #new_binary_clauses=611 
  4.30e-04s  2.82e-04d  [MaxClique] Merged 511 constraints with 1'093 literals into 510 constraints with 1'092 literals
  8.91e-04s  0.00e+00d  [DetectDominanceRelations] 
  3.31e-03s  0.00e+00d  [PresolveToFixPoint] #num_loops=1 #num_dual_strengthening=1 
  1.15e-03s  0.00e+00d  [ProcessAtMostOneAndLinear] 
  1.37e-04s  0.00e+00d  [DetectDuplicateConstraints] 
  1.13e-04s  0.00e+00d  [DetectDuplicateConstraintsWithDifferentEnforcements] 
  1.12e-03s  6.29e-05d  [DetectDominatedLinearConstraints] #relevant_constraints=830 #num_inclusions=333 
  1.36e-04s  0.00e+00d  [DetectDifferentVariables] 
  7.54e-04s  7.52e-05d  [ProcessSetPPC] #relevant_constraints=3'110 #num_inclusions=106 
  2.81e-04s  3.30e-05d  [TransformClausesToExactlyOne] #num_amos=510 #num_clauses=1'724 #num_checked=1'724 
  1.68e-04s  0.00e+00d  [DetectEncodedComplexDomains] 
  5.96e-05s  1.00e-07d  [FindAlmostIdenticalLinearConstraints] #num_tested_pairs=1 
  8.27e-04s  1.17e-03d  [FindBigAtMostOneAndLinearOverlap] 
  1.28e-03s  1.04e-03d  [FindBigVerticalLinearOverlap] 
  3.71e-04s  5.89e-04d  [FindBigHorizontalLinearOverlap] #linears=466 
  3.79e-04s  2.65e-05d  [MergeClauses] #num_collisions=75 #num_merges=75 #num_saved_literals=191 
  8.78e-04s  0.00e+00d  [DetectDominanceRelations] 
  3.16e-03s  0.00e+00d  [PresolveToFixPoint] #num_loops=1 #num_dual_strengthening=1 
  2.57e-05s  0.00e+00d  [MergeNoOverlap] 
  2.62e-05s  0.00e+00d  [MergeNoOverlap2D] 

Presolve summary:
  - 39 affine relations were detected.
  - rule 'TODO dual: only one blocking constraint?' was applied 833 times.
  - rule 'TODO linear inclusion: superset is equality' was applied 167 times.
  - rule 'affine: new relation' was applied 39 times.
  - rule 'at_most_one: removed literals' was applied 61 times.
  - rule 'at_most_one: size one' was applied 60 times.
  - rule 'at_most_one: transformed into max clique' was applied 3 times.
  - rule 'bool_or: implications' was applied 74 times.
  - rule 'bool_or: only one literal' was applied 12 times.
  - rule 'bool_or: removed enforcement literal' was applied 573 times.
  - rule 'deductions: 867 stored' was applied 1 time.
  - rule 'duplicate: merged rhs of linear constraint' was applied 10 times.
  - rule 'duplicate: removed constraint' was applied 11 times.
  - rule 'duplicate: removed enforced constraint' was applied 1 time.
  - rule 'enforcement: false literal' was applied 34 times.
  - rule 'enforcement: true literal' was applied 8 times.
  - rule 'exactly_one: removed literals' was applied 32 times.
  - rule 'exactly_one: satisfied' was applied 3 times.
  - rule 'exactly_one: singleton' was applied 2 times.
  - rule 'exactly_one: size two' was applied 30 times.
  - rule 'exactly_one: x and not(x)' was applied 6 times.
  - rule 'incompatible linear: add implication' was applied 126 times.
  - rule 'linear + amo: empty after processing' was applied 6 times.
  - rule 'linear + amo: extracted enforcement literal' was applied 50 times.
  - rule 'linear inclusion: redundant containing constraint' was applied 3 times.
  - rule 'linear inclusion: redundant included constraint' was applied 3 times.
  - rule 'linear inclusion: sparsify superset' was applied 1 time.
  - rule 'linear matrix: common vertical rectangle' was applied 5 times.
  - rule 'linear1: x in domain' was applied 26 times.
  - rule 'linear2: convert ax + by != cte to clauses' was applied 270 times.
  - rule 'linear2: convert implied ax + by == cte to clauses' was applied 118 times.
  - rule 'linear2: implied ax + by = cte has only one solution' was applied 9 times.
  - rule 'linear: always true' was applied 406 times.
  - rule 'linear: empty' was applied 1 time.
  - rule 'linear: extracted at most one (max)' was applied 1 time.
  - rule 'linear: fixed or dup variables' was applied 879 times.
  - rule 'linear: negative clause' was applied 1'297 times.
  - rule 'linear: negative reified and' was applied 78 times.
  - rule 'linear: never in domain' was applied 6 times.
  - rule 'linear: positive at most one' was applied 26 times.
  - rule 'linear: reduced variable domains' was applied 6 times.
  - rule 'linear: remapped using affine relations' was applied 22 times.
  - rule 'new_bool: integer encoding' was applied 6 times.
  - rule 'presolve: 78 unused variables removed.' was applied 1 time.
  - rule 'presolve: iteration' was applied 3 times.
  - rule 'probing: bool_or reduced to implication' was applied 23 times.
  - rule 'probing: simplified clauses' was applied 10 times.
  - rule 'setppc: bool_or in at_most_one' was applied 7 times.
  - rule 'setppc: removed dominated constraints' was applied 88 times.
  - rule 'variables: add encoding constraint' was applied 6 times.

Presolved satisfaction model '': (model_fingerprint: 0xb2b6479ecf6961ee)
#Variables: 496 (430 primary variables)
  - 491 Booleans in [0,1]
  - 5 in [0,2]
#kAtMostOne: 32 (#literals: 136)
#kBoolAnd: 271 (#enforced: 271) (#literals: 749)
#kBoolAndClauses: 75 (#enforced: 75 #multi: 75) (#literals: 341)
#kBoolOr: 1'574 (#literals: 4'776)
#kExactlyOne: 52 (#literals: 192)
#kLinear1: 12 (#enforced: 12)
#kLinear3: 6 (#enforced: 4)
#kLinearN: 824 (#enforced: 124) (#terms: 5'808)
[Symmetry] Graph for symmetry has 4'089 nodes and 13'397 arcs.
[Symmetry] Symmetry computation done. time: 0.000874942 dtime: 0.00135766

Preloading model.
#Model   0.10s var:496/496 constraints:2846/2846

Starting search at 0.10s with 4 workers.
3 full problem subsolvers: [default_lp, max_lp, no_lp]
1 first solution subsolver: [fj]
2 interleaved subsolvers: [feasibility_pump, rins/rens]
2 helper subsolvers: [neighborhood_helper, synchronization_agent]

#Model   7.64s var:495/496 constraints:2844/2846
#Model 107.24s var:494/496 constraints:2829/2846
#Model 1959.38s var:493/496 constraints:2827/2846
#Model 2343.98s var:492/496 constraints:2827/2846

Task timing                   n [     min,      max]      avg      dev     time         n [     min,      max]      avg      dev    dtime
        'default_lp':         1 [  41.35m,   41.35m]   41.35m   0.00ns   41.35m         2 [  1.98ms,   38.64m]   19.32m   19.32m   38.64m
  'feasibility_pump':     12294 [ 37.87us, 153.94ms]   1.67ms   1.41ms   20.54s     12292 [289.49us, 131.64ms] 302.08us   1.18ms    3.71s
                'fj':      8904 [103.02ms, 247.25ms] 138.07ms   9.94ms   20.49m      8904 [100.00ms, 100.17ms] 100.02ms  15.10us   14.84m
            'max_lp':         1 [  41.35m,   41.35m]   41.35m   0.00ns   41.35m         2 [ 93.40ms,   47.29m]   23.64m   23.64m   47.29m
             'no_lp':         1 [  41.35m,   41.35m]   41.35m   0.00ns   41.35m         2 [  1.75ms,    1.29h]   38.84m   38.84m    1.29h
         'rins/rens':     11136 [  1.19ms, 245.37ms] 110.40ms  43.42ms   20.49m     11134 [234.20us, 100.28ms]  66.67ms  38.50ms   12.37m

Search stats     Bools   Conflicts    Branches  Restarts  BacktrackToRoot   Backtrack     BoolPropag  IntegerPropag
  'default_lp':    491     207'631   9'050'662     1'329        1'530'488   2'084'714     92'997'559    113'578'558
      'max_lp':    491     184'177  10'978'802       910        1'809'188   2'373'226    117'212'225    143'246'545
       'no_lp':    491  19'114'463  27'208'705    69'810          674'112  19'744'770  1'587'490'453    449'370'619

SAT formula      Fixed  Equiv  Total  VarLeft  BinaryClauses  PermanentClauses  TemporaryClauses
  'default_lp':      4      4    491      483          2'486            47'277            12'251
      'max_lp':      4      4    491      483          2'486            47'562             9'758
       'no_lp':      4      4    491      483          2'486           138'833            13'282

SAT stats        ClassicMinim   LitRemoved  LitRemovedBinary   LitLearned  LitForgotten   Subsumed
  'default_lp':       180'795    2'283'744         1'000'156    7'608'327     5'200'549     63'929
      'max_lp':       155'915    2'089'866           792'203    5'320'806     3'916'456     40'271
       'no_lp':    17'098'812  305'202'037       101'754'233  490'403'955   399'983'233  4'663'671

Vivification       Clauses   Decisions  LitTrue  Subsumed  LitRemoved  DecisionReused  Conflicts
  'default_lp':  1'605'106   8'489'490        4    12'173     111'303         352'500        582
      'max_lp':  1'857'487  10'394'418        0    14'029     132'152         379'392        654
       'no_lp':    526'474   4'216'602        0    29'079     338'962         110'566        685

Clause deletion    at_true  l_and_not(l)  to_binary  sub_conflict  sub_extra  sub_decisions  sub_eager  sub_vivify  sub_probing  sub_inpro  blocked  eliminated   forgotten    promoted   conflicts
    'default_lp':      182             0          6        63'109        627          1'929        820      12'173          256      2'259        0           0     125'540     409'626     207'631
        'max_lp':      177             1          3        39'856        588          1'036        415      14'029          281      1'760        0           0     126'561     413'697     184'177
         'no_lp':      333             0          7     4'585'827     40'672        159'968     77'844      29'079          521     56'418        0           0  14'020'056  44'044'289  19'114'463

Lp stats         Component  Iterations  AddedCuts  OPTIMAL  DUAL_F.  DUAL_U.
  'default_lp':          1  27'926'448     94'983  312'471        0  177'619
      'max_lp':          1  12'688'846    114'287   50'644  185'731   32'386

Lp dimension        Final dimension of first component
  'default_lp':    293 rows, 348 columns, 2798 entries
      'max_lp':  1770 rows, 496 columns, 39128 entries

Lp debug         CutPropag  CutEqPropag   Adjust  Overflow        Bad  BadScaling
  'default_lp':          0        1'195  177'618         0  2'588'471           0
      'max_lp':          0           50   32'377         0  3'335'711           0

Lp pool          Constraints  Updates  Simplif  Merged  Shortened  Split  Strengthened        Cuts/Call
  'default_lp':       10'748   24'824        0       0        905      0             0   94'983/181'578
      'max_lp':       12'493   39'022        0       5        127      0         2'388  114'287/234'143

Lp Cut            default_lp  max_lp
          CG_FF:       1'213     101
           CG_K:         657       3
          CG_KL:         563       2
           CG_R:       1'299      48
          CG_RB:          50       1
         CG_RBP:          26       1
         Clique:           -     201
             IB:         129      24
       MIR_1_FF:         888   1'090
        MIR_1_K:         256      26
       MIR_1_KL:         657      51
        MIR_1_R:         846     640
       MIR_1_RB:           -       5
      MIR_1_RLT:           -  11'411
       MIR_2_FF:       1'381   1'410
        MIR_2_K:         342     289
       MIR_2_KL:         600     165
        MIR_2_R:       2'063   1'481
       MIR_2_RB:          22       2
      MIR_2_RBP:           7       2
       MIR_3_FF:         588     360
        MIR_3_K:         136      59
       MIR_3_KL:         187      25
        MIR_3_R:       1'229     570
       MIR_3_RB:          16       6
      MIR_3_RBP:           7       6
       MIR_4_FF:         274     120
        MIR_4_K:          68      15
       MIR_4_KL:          92       8
        MIR_4_R:         929     449
       MIR_4_RB:          18      11
      MIR_4_RBP:           5      14
       MIR_5_FF:          98      36
        MIR_5_K:          21       5
       MIR_5_KL:           9       2
        MIR_5_R:         588     392
       MIR_5_RB:          14       9
      MIR_5_RBP:           8      15
       MIR_6_FF:          51      16
        MIR_6_K:          12       1
       MIR_6_KL:           3       3
        MIR_6_R:         390     419
       MIR_6_RB:           9       8
      MIR_6_RBP:           4      15
   ZERO_HALF_FF:         599     584
    ZERO_HALF_K:         199      27
   ZERO_HALF_KL:         185       5
    ZERO_HALF_R:      78'146  94'025
   ZERO_HALF_RB:          61       1
  ZERO_HALF_RBP:          38     128

LNS stats       Improv/Calls  Closed  Difficulty  TimeLimit
  'rins/rens':   11134/11134     50%    7.23e-01       0.10

LS stats                                    Batches  Restarts/Perturbs    LinMoves   GenMoves  CompoundMoves  Bactracks  WeightUpdates  ScoreComputed
                             'fj_restart':      741                128  22'101'513          0              0          0     18'934'846     33'800'036
                    'fj_restart_compound':      598                124           0  6'758'478        327'489  3'215'252         16'958    107'737'823
                'fj_restart_compound_obj':      754                124           0  8'509'103        321'600  4'093'556         24'933    135'928'367
            'fj_restart_compound_perturb':      388                123           0  4'241'408        279'740  1'980'623          9'321     69'690'286
        'fj_restart_compound_perturb_obj':      872                127           0  9'427'051        325'970  4'550'248         32'632    157'875'579
                       'fj_restart_decay':      418                114  13'138'245          0              0          0        568'474      7'498'056
              'fj_restart_decay_compound':      625                140           0  7'602'954      1'235'601  3'183'343          8'032    114'150'072
          'fj_restart_decay_compound_obj':      374                121           0  4'373'892        711'993  1'830'686          4'897     68'098'512
      'fj_restart_decay_compound_perturb':      623                108           0  7'746'390      1'259'879  3'243'017          8'051    114'062'285
  'fj_restart_decay_compound_perturb_obj':      570                121           0  6'999'442      1'129'565  2'934'626          7'340    104'213'601
                   'fj_restart_decay_obj':      308                109   9'681'953          0              0          0        418'759      5'520'238
               'fj_restart_decay_perturb':      520                125  16'355'512          0              0          0        706'825      9'324'079
           'fj_restart_decay_perturb_obj':      778                132  24'496'578          0              0          0      1'058'980     13'942'183
                         'fj_restart_obj':      416                120  12'011'770          0              0          0     10'445'678     17'482'496
                     'fj_restart_perturb':      385                123  11'077'736          0              0          0      9'635'828     16'583'039
                 'fj_restart_perturb_obj':      534                118  15'672'920          0              0          0     13'253'031     23'433'976

Solution repositories    Added  Queried  Synchro
    'alternative_path':      0        0        0
      'best_solutions':      0        0        0
   'fj solution hints':  1'949        0    1'949
        'lp solutions':  2'318   11'136    2'317
                'pump':      0        0

Improving bounds shared    Num  Sym
            'default_lp':    4    0

Clauses shared    #Exported  #Imported  #BinaryRead  #BinaryTotal
   'default_lp':      2'917     57'045          335           335
       'max_lp':      4'047     56'069          335           335
        'no_lp':     55'752      6'685          335           335

LRAT_status: NA
CpSolverResponse summary:
status: UNKNOWN
objective: NA
best_bound: NA
integers: 361
booleans: 491
conflicts: 207631
branches: 9050662
propagations: 92997559
integer_propagations: 113578558
restarts: 1329
lp_iterations: 27926448
walltime: 2481.2
usertime: 2481.2
deterministic_time: 11452.6
gap_integral: 0

{
  "board_size": 22,
  "parity_proved": 0,
  "target": 34,
  "child_id": 1132,
  "child_count": 2640,
  "partition": "unknown_pair_x_diag_plus_twos_x_diag_minus_twos",
  "build_seconds": 0.08285379409790039,
  "workers": 4,
  "requested_seed": 2026073232,
  "effective_seed": 2026073232,
  "main_diagonal_pair": [
    2,
    19
  ],
  "pair_index": 56,
  "diag_plus_twos": 16,
  "diag_minus_twos": 16,
  "pair_excess": 0,
  "residual_certificate_slack": 112,
  "analytic_minimum_line_defect": 24,
  "analytic_defect_details": {
    "row_costs": {
      "12": 6,
      "13": 3,
      "14": 0,
      "15": 0,
      "16": 0,
      "17": 0
    },
    "column_costs": {
      "12": 6,
      "13": 3,
      "14": 0,
      "15": 0,
      "16": 0,
      "17": 0
    },
    "plus_cost": 24,
    "minus_cost": 0,
    "row_column_minimum": 0
  },
  "maximal_line_constraints": 2455,
  "analytic_infeasible": false,
  "allowed_points": 242,
  "status": "UNKNOWN",
  "proof_method": "cp_sat_all_lines_with_certificate_profile_cuts",
  "elapsed_seconds": 2481.2045755386353,
  "branches": 9050662,
  "conflicts": 207631
}
